40989215529664932915012,13,1,2,013,11,1,2,012,6,1,2,015,15,1,2,07,3,1,2,02,7,1,2,08,15,1,2,08,13,1,2,03,6,1,2,05,1,1,2,014,6,1,2,07,13,1,2,08,2,1,2,04,2,1,2,05,15,1,2,03,15,1,2,015,2,1,2,01,11,1,2,08,12,1,2,09,5,1,2,014,7,1,2,08,7,1,2,013,11,1,2,013,12,1,2,014,13,1,2,07,3,1,2,07,12,1,2,03,10,1,2,02,12,1,2,010,10,1,2,014,14,1,2,08,9,1,2,011,2,1,2,05,3,1,2,04,4,1,2,015,6,1,2,07,6,1,2,01,11,1,2,09,14,1,2,015,6,1,2,010,6,1,2,010,11,1,2,010,15,1,2,03,5,1,2,09,10,1,2,06,2,1,2,05,1,1,2,01,11,1,2,08,7,1,2,05,3,1,2,0